&CONTROL
  calculation = 'scf'
  restart_mode='from_scratch', 
  outdir = './out/'
  prefix = 'aiida'
  pseudo_dir = './pseudo/'
  verbosity = 'high'
 
/
&SYSTEM
  ibrav=  1,
  celldm(1)=   11.2566445139,
  ecutrho =   4.8000000000d+02,
  ecutwfc =   6.0000000000d+01,
  nat = 5,
  ntyp = 3,
  nbnd = 50,
  occupations = 'fixed',
/
&ELECTRONS
  mixing_beta=0.7,
  conv_thr=1d-8,
  diagonalization='david',
/
ATOMIC_SPECIES
Ge     72.64 ge_pbe_v1.4.uspp.F.UPF
I      126.90447 I.pbe-n-kjpaw_psl.0.2.UPF
Rb     85.4678 Rb_ONCV_PBE-1.0.oncvpsp.upf
ATOMIC_POSITIONS (crystal)
Rb               0.5000000000        0.5000000000        0.5000000000
Ge               0.0000000000        0.0000000000        0.0000000000
I                0.0000000000        0.0000000000        0.5000000000
I                0.5000000000        0.0000000000        0.0000000000
I                0.0000000000        0.5000000000        0.0000000000
K_POINTS automatic
2 2 2 0 0 0
