&CONTROL
  calculation = 'nscf'
  restart_mode='from_scratch', 
  outdir = './out/'
  prefix = 'aiida'
  pseudo_dir = '../pseudo/'
  verbosity = 'high'
 
/
&SYSTEM
  ibrav = 0 ,
  ecutrho =   4.8000000000d+02,
  ecutwfc =   6.0000000000d+01,
  nat = 5,
  ntyp = 3,
  nbnd = 50,
  occupations = 'tetrahedra',
  nosym=.true.
  noinv=.true.
/
&ELECTRONS
  mixing_beta=0.7,
  conv_thr=1d-8,
/
ATOMIC_SPECIES
Ge     72.64 Ge-d_r.upf
I      126.90447 I_r.upf
Rb     85.4678 Rb-sp_r.upf
ATOMIC_POSITIONS (crystal)
Rb               0.5000000000        0.5000000000        0.5000000000
Ge               0.0000000000        0.0000000000        0.0000000000
I                0.0000000000        0.0000000000        0.5000000000
I                0.5000000000        0.0000000000        0.0000000000
I                0.0000000000        0.5000000000        0.0000000000
K_POINTS automatic
4 4 4 0 0 0
CELL_PARAMETERS (angstrom)
   5.956759748   0.000000000   0.000000000
   0.000000000   5.956759748   0.000000000
   0.000000000   0.000000000   5.956759748
