&inputpp
    prefix = 'aiida',      
    outdir = './out',           
    calculation = 'eps',
/
&energy_grid
    smeartype = 'gauss',     
    intersmear = 0.15,           
    intrasmear = 0.0,
    wmax = 30.0,                 
    wmin = 0.0,
    nw = 600,                    
    shift = 0.0
/
