&CONTROL
calculation = 'scf'
outdir = '../'
prefix = 'Rb3IO'
pseudo_dir = '../../../pseudos'
restart_mode = 'from_scratch'
verbosity = 'high'
/
&SYSTEM
ibrav = 0
nat = 5
ntyp = 3
ecutwfc = 37
ecutrho = 300
nbnd = 30
occupations = 'fixed'
input_dft = 'RPBE'
nosym=.true
noinv=.true.
!lspinorb = .true.      ! Enable spin-orbit coupling
!noncolin = .true.      ! Enable non-collinear calculation
/
&ELECTRONS
conv_thr = 1.0D-8
mixing_beta = 0.7
/
ATOMIC_SPECIES
Rb  85.4678  Rb_pbe.UPF
I  126.9045  I_pbe.UPF
O  15.9990  O_pbe.UPF

CELL_PARAMETERS (angstrom)
5.511349886   0.000000000   0.000000000
0.000000000   5.511349886   0.000000000
0.000000000   0.000000000   5.511349886

ATOMIC_POSITIONS (alat)
Rb               0.5205053318        0.0000000000        0.0000000000
Rb               0.0000000000        0.0000000000        0.5205053318
Rb               0.0000000000        0.5205053318        0.0000000000
I                0.5205053318        0.5205053318        0.5205053318
O                0.0000000000        0.0000000000        0.0000000000

K_POINTS crystal
172
    0.0000000000     0.0000000000     0.0000000000 1
    0.0000000000     0.0227272727     0.0000000000 1
    0.0000000000     0.0454545455     0.0000000000 1
    0.0000000000     0.0681818182     0.0000000000 1
    0.0000000000     0.0909090909     0.0000000000 1
    0.0000000000     0.1136363636     0.0000000000 1
    0.0000000000     0.1363636364     0.0000000000 1
    0.0000000000     0.1590909091     0.0000000000 1
    0.0000000000     0.1818181818     0.0000000000 1
    0.0000000000     0.2045454545     0.0000000000 1
    0.0000000000     0.2272727273     0.0000000000 1
    0.0000000000     0.2500000000     0.0000000000 1
    0.0000000000     0.2727272727     0.0000000000 1
    0.0000000000     0.2954545455     0.0000000000 1
    0.0000000000     0.3181818182     0.0000000000 1
    0.0000000000     0.3409090909     0.0000000000 1
    0.0000000000     0.3636363636     0.0000000000 1
    0.0000000000     0.3863636364     0.0000000000 1
    0.0000000000     0.4090909091     0.0000000000 1
    0.0000000000     0.4318181818     0.0000000000 1
    0.0000000000     0.4545454545     0.0000000000 1
    0.0000000000     0.4772727273     0.0000000000 1
    0.0000000000     0.5000000000     0.0000000000 1
    0.0227272727     0.5000000000     0.0000000000 1
    0.0454545455     0.5000000000     0.0000000000 1
    0.0681818182     0.5000000000     0.0000000000 1
    0.0909090909     0.5000000000     0.0000000000 1
    0.1136363636     0.5000000000     0.0000000000 1
    0.1363636364     0.5000000000     0.0000000000 1
    0.1590909091     0.5000000000     0.0000000000 1
    0.1818181818     0.5000000000     0.0000000000 1
    0.2045454545     0.5000000000     0.0000000000 1
    0.2272727273     0.5000000000     0.0000000000 1
    0.2500000000     0.5000000000     0.0000000000 1
    0.2727272727     0.5000000000     0.0000000000 1
    0.2954545455     0.5000000000     0.0000000000 1
    0.3181818182     0.5000000000     0.0000000000 1
    0.3409090909     0.5000000000     0.0000000000 1
    0.3636363636     0.5000000000     0.0000000000 1
    0.3863636364     0.5000000000     0.0000000000 1
    0.4090909091     0.5000000000     0.0000000000 1
    0.4318181818     0.5000000000     0.0000000000 1
    0.4545454545     0.5000000000     0.0000000000 1
    0.4772727273     0.5000000000     0.0000000000 1
    0.5000000000     0.5000000000     0.0000000000 1
    0.4843750000     0.4843750000     0.0000000000 1
    0.4687500000     0.4687500000     0.0000000000 1
    0.4531250000     0.4531250000     0.0000000000 1
    0.4375000000     0.4375000000     0.0000000000 1
    0.4218750000     0.4218750000     0.0000000000 1
    0.4062500000     0.4062500000     0.0000000000 1
    0.3906250000     0.3906250000     0.0000000000 1
    0.3750000000     0.3750000000     0.0000000000 1
    0.3593750000     0.3593750000     0.0000000000 1
    0.3437500000     0.3437500000     0.0000000000 1
    0.3281250000     0.3281250000     0.0000000000 1
    0.3125000000     0.3125000000     0.0000000000 1
    0.2968750000     0.2968750000     0.0000000000 1
    0.2812500000     0.2812500000     0.0000000000 1
    0.2656250000     0.2656250000     0.0000000000 1
    0.2500000000     0.2500000000     0.0000000000 1
    0.2343750000     0.2343750000     0.0000000000 1
    0.2187500000     0.2187500000     0.0000000000 1
    0.2031250000     0.2031250000     0.0000000000 1
    0.1875000000     0.1875000000     0.0000000000 1
    0.1718750000     0.1718750000     0.0000000000 1
    0.1562500000     0.1562500000     0.0000000000 1
    0.1406250000     0.1406250000     0.0000000000 1
    0.1250000000     0.1250000000     0.0000000000 1
    0.1093750000     0.1093750000     0.0000000000 1
    0.0937500000     0.0937500000     0.0000000000 1
    0.0781250000     0.0781250000     0.0000000000 1
    0.0625000000     0.0625000000     0.0000000000 1
    0.0468750000     0.0468750000     0.0000000000 1
    0.0312500000     0.0312500000     0.0000000000 1
    0.0156250000     0.0156250000     0.0000000000 1
    0.0000000000     0.0000000000     0.0000000000 1
    0.0125000000     0.0125000000     0.0125000000 1
    0.0250000000     0.0250000000     0.0250000000 1
    0.0375000000     0.0375000000     0.0375000000 1
    0.0500000000     0.0500000000     0.0500000000 1
    0.0625000000     0.0625000000     0.0625000000 1
    0.0750000000     0.0750000000     0.0750000000 1
    0.0875000000     0.0875000000     0.0875000000 1
    0.1000000000     0.1000000000     0.1000000000 1
    0.1125000000     0.1125000000     0.1125000000 1
    0.1250000000     0.1250000000     0.1250000000 1
    0.1375000000     0.1375000000     0.1375000000 1
    0.1500000000     0.1500000000     0.1500000000 1
    0.1625000000     0.1625000000     0.1625000000 1
    0.1750000000     0.1750000000     0.1750000000 1
    0.1875000000     0.1875000000     0.1875000000 1
    0.2000000000     0.2000000000     0.2000000000 1
    0.2125000000     0.2125000000     0.2125000000 1
    0.2250000000     0.2250000000     0.2250000000 1
    0.2375000000     0.2375000000     0.2375000000 1
    0.2500000000     0.2500000000     0.2500000000 1
    0.2625000000     0.2625000000     0.2625000000 1
    0.2750000000     0.2750000000     0.2750000000 1
    0.2875000000     0.2875000000     0.2875000000 1
    0.3000000000     0.3000000000     0.3000000000 1
    0.3125000000     0.3125000000     0.3125000000 1
    0.3250000000     0.3250000000     0.3250000000 1
    0.3375000000     0.3375000000     0.3375000000 1
    0.3500000000     0.3500000000     0.3500000000 1
    0.3625000000     0.3625000000     0.3625000000 1
    0.3750000000     0.3750000000     0.3750000000 1
    0.3875000000     0.3875000000     0.3875000000 1
    0.4000000000     0.4000000000     0.4000000000 1
    0.4125000000     0.4125000000     0.4125000000 1
    0.4250000000     0.4250000000     0.4250000000 1
    0.4375000000     0.4375000000     0.4375000000 1
    0.4500000000     0.4500000000     0.4500000000 1
    0.4625000000     0.4625000000     0.4625000000 1
    0.4750000000     0.4750000000     0.4750000000 1
    0.4875000000     0.4875000000     0.4875000000 1
    0.5000000000     0.5000000000     0.5000000000 1
    0.4843750000     0.5000000000     0.4843750000 1
    0.4687500000     0.5000000000     0.4687500000 1
    0.4531250000     0.5000000000     0.4531250000 1
    0.4375000000     0.5000000000     0.4375000000 1
    0.4218750000     0.5000000000     0.4218750000 1
    0.4062500000     0.5000000000     0.4062500000 1
    0.3906250000     0.5000000000     0.3906250000 1
    0.3750000000     0.5000000000     0.3750000000 1
    0.3593750000     0.5000000000     0.3593750000 1
    0.3437500000     0.5000000000     0.3437500000 1
    0.3281250000     0.5000000000     0.3281250000 1
    0.3125000000     0.5000000000     0.3125000000 1
    0.2968750000     0.5000000000     0.2968750000 1
    0.2812500000     0.5000000000     0.2812500000 1
    0.2656250000     0.5000000000     0.2656250000 1
    0.2500000000     0.5000000000     0.2500000000 1
    0.2343750000     0.5000000000     0.2343750000 1
    0.2187500000     0.5000000000     0.2187500000 1
    0.2031250000     0.5000000000     0.2031250000 1
    0.1875000000     0.5000000000     0.1875000000 1
    0.1718750000     0.5000000000     0.1718750000 1
    0.1562500000     0.5000000000     0.1562500000 1
    0.1406250000     0.5000000000     0.1406250000 1
    0.1250000000     0.5000000000     0.1250000000 1
    0.1093750000     0.5000000000     0.1093750000 1
    0.0937500000     0.5000000000     0.0937500000 1
    0.0781250000     0.5000000000     0.0781250000 1
    0.0625000000     0.5000000000     0.0625000000 1
    0.0468750000     0.5000000000     0.0468750000 1
    0.0312500000     0.5000000000     0.0312500000 1
    0.0156250000     0.5000000000     0.0156250000 1
    0.0000000000     0.5000000000     0.0000000000 1
    0.5000000000     0.5000000000     0.5000000000 1
    0.5000000000     0.5000000000     0.4772727273 1
    0.5000000000     0.5000000000     0.4545454545 1
    0.5000000000     0.5000000000     0.4318181818 1
    0.5000000000     0.5000000000     0.4090909091 1
    0.5000000000     0.5000000000     0.3863636364 1
    0.5000000000     0.5000000000     0.3636363636 1
    0.5000000000     0.5000000000     0.3409090909 1
    0.5000000000     0.5000000000     0.3181818182 1
    0.5000000000     0.5000000000     0.2954545455 1
    0.5000000000     0.5000000000     0.2727272727 1
    0.5000000000     0.5000000000     0.2500000000 1
    0.5000000000     0.5000000000     0.2272727273 1
    0.5000000000     0.5000000000     0.2045454545 1
    0.5000000000     0.5000000000     0.1818181818 1
    0.5000000000     0.5000000000     0.1590909091 1
    0.5000000000     0.5000000000     0.1363636364 1
    0.5000000000     0.5000000000     0.1136363636 1
    0.5000000000     0.5000000000     0.0909090909 1
    0.5000000000     0.5000000000     0.0681818182 1
    0.5000000000     0.5000000000     0.0454545455 1
    0.5000000000     0.5000000000     0.0227272727 1
    0.5000000000     0.5000000000     0.0000000000 1

HUBBARD (ortho-atomic)
U O-2p 4.3



