&CONTROL
calculation = 'scf'
outdir = '../'
prefix = 'Rb3IO'
pseudo_dir = '../../../ONCV'
restart_mode = 'from_scratch'
verbosity = 'high'
/
&SYSTEM
ibrav = 0
nat = 5
ntyp = 3
ecutwfc = 37
ecutrho = 300
nbnd = 30
occupations = 'fixed'
input_dft = 'RPBE'
nosym=.true
noinv=.true.
!lspinorb = .true.      ! Enable spin-orbit coupling
!noncolin = .true.      ! Enable non-collinear calculation
/
&ELECTRONS
conv_thr = 1.0D-8
mixing_beta = 0.7
/
ATOMIC_SPECIES
Rb  85.4678  Rb_ONCV_PBE-1.0.upf
I  126.9045  I_ONCV_PBE-1.0.upf
O  15.9990  O_ONCV_PBE-1.0.upf

CELL_PARAMETERS (angstrom)
5.511349886   0.000000000   0.000000000
0.000000000   5.511349886   0.000000000
0.000000000   0.000000000   5.511349886

ATOMIC_POSITIONS (alat)
Rb               0.5205053318        0.0000000000        0.0000000000
Rb               0.0000000000        0.0000000000        0.5205053318
Rb               0.0000000000        0.5205053318        0.0000000000
I                0.5205053318        0.5205053318        0.5205053318
O                0.0000000000        0.0000000000        0.0000000000

K_POINTS crystal
172
    0.0000000000     0.0000000000     0.0000000000 1




