Input generator,K-path generator or cif2qe.py your_file.cif > qe_input.in
chmod +x <>
./<>
check ecutwfc and ecutrho from pseudopotential file
convert to cartesian from fractional for using angstrom to change atomic positions in vc-relax

use oncp pp from psudo dojo https://github.com/PseudoDojo
use common outdir and pseudo_dir 

## Phonopy
edit K3IO.in
phonopy --qe -d --dim="2 2 2" -c K3IO.in
edit header.in and run.sh
phonopy --qe -f K3IO-{001..003}.out
edit band.conf
phonopy --qe -c K3IO.in -p -s  band.conf

relax scf properties
#SCF
-relaxed lattice parameter & co-ordinates should be copied to scf
-nbnd=no.of electrons(for getting CB & calc band gap)
-smearing is not necessary as we will do nscf to get fermi energy (!smearing,occupation,degauss)


#NSCF
-cp scf_out
-do nscf calc with higher kpt & occupations


#BAND 
-do scf calc do get fermi level ,then nscf smearing tetragonal
-do bands calc with kpath by pw.x
-do band_dat calc by bands.x
#DFT+U
-do scf with Hubbard 1.0d-8
-do hp.x for gettting the U parameter(the element must be at first in atomic_position of scf)
&inputhp
   prefix = 'K3IO'
   outdir = './out/'
   nq1 = 5, 
   nq2 = 5, 
   nq3 = 5,
   conv_thr_chi = 1.0d-8,
   iverbosity = 2
/
-then do vc-relax and scf repeadtedly until converged


#DOS
-do nscf 
-do dos.x execution
&dos
   prefix = 'aiida'
   outdir = './out/'
   fildos = 'tdos.dat'
   emin=-9.0
   emax=16.0
   deltaE = 0.01
/
#PDOS
-projwfc.x
&PROJWFC
  prefix= 'al',
  outdir= '/tmp/',
  filpdos= 'pdos.dat'
/


#MECHA
-add thermo_control
&INPUT_THERMO
         what='mur_lc_elastic_constants',
         frozen_ions=.false.
/
-do thermo_pw.x execution (mpirun -np 32 thermo_pw.x -in mecha.in | tee mecha.out)
-celldm in atomic unit not in angstrom


# OPTICAL
-do scf with nosym & noinv and kpt_crystal and PP should not be ultrasoft(epsilon.x works only with  
norm-conserving pseudopotentials, e.g., Martins-Troullier, RRKJ, ONCV)
-do epsilon.x execution
&inputpp
  outdir = "/tmp/"
  prefix = "silicon"
  calculation = "eps"
/

&energy_grid
  smeartype = "gauss"
  intersmear = 0.2
  wmin =  0.0
  wmax = 30.0
  nw = 500
/

recording shortcut



