Input generator,K-path generator or cif2qe.py your_file.cif > qe_input.in

use oncp pp from psudo dojo https://github.com/PseudoDojo
use common outdir and pseudo_dir 

relax scf properties
#SCF
-relaxed lattice parameter & co-ordinates should be copied to scf
-nbnd=no.of electrons(for getting CB & calc band gap)
-smearing is not necessary as we will do nscf to get fermi energy (!smearing,occupation,degauss)


#NSCF
-cp scf_out
-do nscf calc with higher kpt & occupations


#BAND 
-do nscf 
-do bands calc with kpath
#DFT+U
-do scf with Hubbard
-do hp.x for gettting the U parameter(the element must be at first in atomic_position of scf)
&inputhp
   prefix = 'K3IO'
   outdir = './out/'
   nq1 = 5, 
   nq2 = 5, 
   nq3 = 5,
   conv_thr_chi = 1.0d-8,
   iverbosity = 2
/


#DOS
-do nscf 
-do dos.x execution
&dos
   prefix = 'aiida'
   outdir = './out/'
   fildos = 'dos.dat'
   emin=-9.0
   emax=16.0
   deltaE = 0.01
/


#MECHA
-do mecha calc
-add thermo_control
&INPUT_THERMO
         what='mur_lc_elastic_constants',
         frozen_ions=.false.
/
-do thermo_pw.x execution


# OPTICAL
-do scf with nosym & noinv and kpt_crystal
-do epsilon.x execution





